50
    79    82    69    93    80    29    39     1    23    32    33    48    25    41    88    66    70    97    58    28     7    31    14    50    51    65    40    85    83    11    38    30    49    74    24    20    61    46    29    32    96    12     3    83    97    48     7    31    73    19
     4     3     4     1     1     9     7     3     8     3     2    10     3     7     5     8     4     3     6     9     9     7     7     4     6     5     8     9     2     9     3     9     4     7     8     4     8     5     8     6     2     8     9     6    10     6     3     1     9     6
   340   601   591   641   705   447   624   435   433   451   487   642   297   295   626   346   598   690   454   374   341   434   514   705   480   403   587   520   701   602   421   393   278   336   702   430   596   519   439   546   265   500   327   516   516   370   611   255   311   655
